instances/knapsack/discrete_knapsack_uncertainty/knapsack_90_20.lp
\ Model knapsack_90_20
\ LP format - for model browsing. Use MPS format to capture full model detail.
\ Signature: 0xc29ff4c0dcb79651
Minimize
  - 47 x[0] - 60 x[1] - 61 x[2] - 25 x[3] - 51 x[4] - 70 x[5] - 31 x[6]
   - 25 x[7] - 8 x[8] - 64 x[9] - 60 x[10] - 84 x[11] - 44 x[12] - 7 x[13]
   - 56 x[14] - 9 x[15] - 59 x[16] - 75 x[17] - 20 x[18] - 79 x[19]
   - 43 x[20] - 64 x[21] - 13 x[22] - 93 x[23] - 70 x[24] - 84 x[25]
   - 73 x[26] - 45 x[27] - 27 x[28] - 42 x[29] - 94 x[30] - 61 x[31]
   - 73 x[32] - 56 x[33] - 53 x[34] - 10 x[35] - 74 x[36] - 96 x[37]
   - 12 x[38] - 17 x[39] - 45 x[40] - 51 x[41] - 23 x[42] - 88 x[43]
   - 100 x[44] - 8 x[45] - 94 x[46] - 42 x[47] - 74 x[48] - 79 x[49]
   - 68 x[50] - 40 x[51] - 20 x[52] - 34 x[53] - 5 x[54] - 87 x[55]
   - 48 x[56] - 61 x[57] - 37 x[58] - 60 x[59] - 85 x[60] - 31 x[61]
   - 55 x[62] - 47 x[63] - 36 x[64] - 98 x[65] - 86 x[66] - 71 x[67]
   - 34 x[68] - 71 x[69] - 26 x[70] - 76 x[71] - 50 x[72] - 27 x[73]
   - 40 x[74] - 7 x[75] - 47 x[76] - 42 x[77] - 37 x[78] - 97 x[79]
   - 88 x[80] - 99 x[81] - 67 x[82] - 79 x[83] - 62 x[84] - 94 x[85]
   - 7 x[86] - 40 x[87] - 9 x[88] - 64 x[89]
Subject To
 primal_upper: 61 x[0] + 33 x[1] + 15 x[2] + 16 x[3] + 45 x[4] + 99 x[5]
   + 94 x[6] + 89 x[7] + 2 x[8] + 71 x[9] + 9 x[10] + 72 x[11] + 5 x[12]
   + 21 x[13] + 94 x[14] + 14 x[15] + 2 x[16] + 61 x[17] + 30 x[18]
   + 87 x[19] + 94 x[20] + 89 x[21] + 93 x[22] + 24 x[23] + 62 x[24]
   + x[25] + 55 x[26] + 9 x[27] + 11 x[28] + 32 x[29] + 83 x[30] + 93 x[31]
   + 29 x[32] + 94 x[33] + 49 x[34] + 58 x[35] + x[36] + 22 x[37]
   + 85 x[38] + 28 x[39] + 96 x[40] + 87 x[41] + 83 x[42] + 59 x[43]
   + 40 x[44] + 92 x[45] + 27 x[46] + 55 x[47] + 64 x[48] + 9 x[49]
   + 72 x[50] + 21 x[51] + 34 x[52] + 17 x[53] + 46 x[54] + 5 x[55]
   + 62 x[56] + 44 x[57] + 97 x[58] + 15 x[59] + 78 x[60] + 60 x[61]
   + 37 x[62] + 24 x[63] + 65 x[64] + 89 x[65] + 82 x[66] + 16 x[67]
   + 9 x[68] + 7 x[69] + 35 x[70] + 43 x[71] + 67 x[72] + 56 x[73]
   + 97 x[74] + 50 x[75] + 76 x[76] + 92 x[77] + 22 x[78] + 88 x[79]
   + 95 x[80] + 27 x[81] + 80 x[82] + 11 x[83] + 27 x[84] + 7 x[85]
   + 69 x[86] + 85 x[87] + 75 x[88] + 84 x[89] + 6.1 r[0] + 3.3 r[1]
   + 1.5 r[2] + 1.6 r[3] + 4.5 r[4] + 9.9 r[5] + 9.4 r[6] + 8.9 r[7]
   + 0.2 r[8] + 7.1 r[9] + 0.9 r[10] + 7.2 r[11] + 0.5 r[12] + 2.1 r[13]
   + 9.4 r[14] + 1.4 r[15] + 0.2 r[16] + 6.1 r[17] + 3 r[18] + 8.7 r[19]
   + 9.4 r[20] + 8.9 r[21] + 9.3 r[22] + 2.4 r[23] + 6.2 r[24] + 0.1 r[25]
   + 5.5 r[26] + 0.9 r[27] + 1.1 r[28] + 3.2 r[29] + 8.3 r[30] + 9.3 r[31]
   + 2.9 r[32] + 9.4 r[33] + 4.9 r[34] + 5.8 r[35] + 0.1 r[36] + 2.2 r[37]
   + 8.5 r[38] + 2.8 r[39] + 9.6 r[40] + 8.7 r[41] + 8.3 r[42] + 5.9 r[43]
   + 4 r[44] + 9.2 r[45] + 2.7 r[46] + 5.5 r[47] + 6.4 r[48] + 0.9 r[49]
   + 7.2 r[50] + 2.1 r[51] + 3.4 r[52] + 1.7 r[53] + 4.6 r[54] + 0.5 r[55]
   + 6.2 r[56] + 4.4 r[57] + 9.7 r[58] + 1.5 r[59] + 7.8 r[60] + 6 r[61]
   + 3.7 r[62] + 2.4 r[63] + 6.5 r[64] + 8.9 r[65] + 8.2 r[66] + 1.6 r[67]
   + 0.9 r[68] + 0.7 r[69] + 3.5 r[70] + 4.3 r[71] + 6.7 r[72] + 5.6 r[73]
   + 9.7 r[74] + 5 r[75] + 7.6 r[76] + 9.2 r[77] + 2.2 r[78] + 8.8 r[79]
   + 9.5 r[80] + 2.7 r[81] + 8 r[82] + 1.1 r[83] + 2.7 r[84] + 0.7 r[85]
   + 6.9 r[86] + 8.5 r[87] + 7.5 r[88] + 8.4 r[89] <= 439
 primal_lower: 0.5150229647936578 x[0] + 4.289171924737778 x[1]
   + 2.699488431883872 x[2] + 1.552549128887545 x[3]
   + 2.691330806271699 x[4] + 3.925626984277941 x[5]
   + 1.755337656157737 x[6] + 3.499703107530444 x[7]
   + 0.5672500157603667 x[8] + 2.253644656213321 x[9]
   + 3.599320678894731 x[10] + 4.330406038385392 x[11]
   + 4.717707948756692 x[12] + 0.1275097522503685 x[13]
   + 3.45743687656652 x[14] + 2.213226890464636 x[15]
   + 1.864755967375743 x[16] + 3.579320785510888 x[17]
   + 0.00186349161338732 x[18] + 1.283202900832476 x[19]
   + 1.171166041026151 x[20] + 0.2718611031477239 x[21]
   + 0.0176202629617926 x[22] + 1.387382351704668 x[23]
   + 1.183279144708418 x[24] + 4.508815522518818 x[25]
   + 1.045532687738459 x[26] + 4.21053762842623 x[27]
   + 0.8956355581720862 x[28] + 4.48574878046856 x[29]
   + 4.551846767106431 x[30] + 0.1291293358979567 x[31]
   + 1.489243903744524 x[32] + 3.892857332241771 x[33]
   + 1.295682251549387 x[34] + 4.336470899464783 x[35]
   + 1.783640228412736 x[36] + 1.940666141271302 x[37]
   + 0.2470887570372274 x[38] + 4.233344783844349 x[39]
   + 2.108151084206706 x[40] + 0.2923271698901037 x[41]
   + 0.5064836790115513 x[42] + 2.498745871074405 x[43]
   + 1.366183857874961 x[44] + 3.831120605433494 x[45]
   + 3.198942879694379 x[46] + 1.344988468814603 x[47]
   + 3.183638736547276 x[48] + 2.907538921236202 x[49]
   + 0.7107366583256957 x[50] + 1.798707242564302 x[51]
   + 1.248052919757847 x[52] + 1.523535519753004 x[53]
   + 1.22158317646288 x[54] + 0.4758703653981681 x[55]
   + 4.538973386660508 x[56] + 0.6358544624421701 x[57]
   + 3.041748702098122 x[58] + 2.707902453171664 x[59]
   + 3.691543244224831 x[60] + 3.751383720007919 x[61]
   + 0.1777495543200593 x[62] + 2.511803001944718 x[63]
   + 3.845714439758291 x[64] + 0.8388683831966096 x[65]
   + 2.484808139342138 x[66] + 0.3715395226481045 x[67]
   + 4.632971441519733 x[68] + 1.540709512026616 x[69]
   + 1.420630346917479 x[70] + 0.9729025928190127 x[71]
   + 3.51462836552158 x[72] + 4.332948919128998 x[73]
   + 4.134894095916915 x[74] + 1.627228316877919 x[75]
   + 2.907167752347422 x[76] + 3.446393211293895 x[77]
   + 2.90700061203709 x[78] + 2.800815534376361 x[79]
   + 1.198089884619886 x[80] + 1.646145352087305 x[81]
   + 3.28037938907872 x[82] + 1.283927965144533 x[83]
   + 4.506396402975925 x[84] + 1.088951271620348 x[85]
   + 0.8025462989501384 x[86] + 3.076919596564482 x[87]
   + 0.8723657650208494 x[88] + 3.579582890112894 x[89] + 37 u[0] + 10 u[1]
   + 36 u[2] + 21 u[3] + 2 u[4] + 79 u[5] + 11 u[6] + 49 u[7] + 83 u[8]
   + 60 u[9] + 85 u[10] + 69 u[11] + 86 u[12] + 26 u[13] + 66 u[14]
   + 54 u[15] + 91 u[16] + 94 u[17] + 39 u[18] + 76 u[19] + 23 u[20]
   + 17 u[21] + 46 u[22] + 80 u[23] + 14 u[24] + 54 u[25] + 60 u[26]
   + 17 u[27] + 87 u[28] + 57 u[29] + 91 u[30] + 49 u[31] + 49 u[32]
   + 91 u[33] + 86 u[34] + 35 u[35] + 34 u[36] + 54 u[37] + 30 u[38]
   + 52 u[39] + 45 u[40] + 71 u[41] + 80 u[42] + 23 u[43] + 21 u[44]
   + 56 u[45] + 71 u[46] + 79 u[47] + 37 u[48] + 14 u[49] + 8 u[50]
   + 22 u[51] + 39 u[52] + 98 u[53] + 34 u[54] + 41 u[55] + 11 u[56]
   + 48 u[57] + 46 u[58] + 56 u[59] + 2 u[60] + 28 u[61] + 37 u[62]
   + 60 u[63] + 77 u[64] + 6 u[65] + 86 u[66] + 80 u[67] + 54 u[68]
   + 11 u[69] + 19 u[70] + 87 u[71] + 76 u[72] + 49 u[73] + 49 u[74]
   + 34 u[75] + 32 u[76] + 25 u[77] + 58 u[78] + 28 u[79] + 95 u[80]
   + 83 u[81] + 76 u[82] + 35 u[83] + 55 u[84] + 63 u[85] + 13 u[86]
   + 38 u[87] + 44 u[88] + 69 u[89] <= 46977
 mccormick1[0]: - u[0] + r[0] <= 0
 mccormick1[1]: - u[1] + r[1] <= 0
 mccormick1[2]: - u[2] + r[2] <= 0
 mccormick1[3]: - u[3] + r[3] <= 0
 mccormick1[4]: - u[4] + r[4] <= 0
 mccormick1[5]: - u[5] + r[5] <= 0
 mccormick1[6]: - u[6] + r[6] <= 0
 mccormick1[7]: - u[7] + r[7] <= 0
 mccormick1[8]: - u[8] + r[8] <= 0
 mccormick1[9]: - u[9] + r[9] <= 0
 mccormick1[10]: - u[10] + r[10] <= 0
 mccormick1[11]: - u[11] + r[11] <= 0
 mccormick1[12]: - u[12] + r[12] <= 0
 mccormick1[13]: - u[13] + r[13] <= 0
 mccormick1[14]: - u[14] + r[14] <= 0
 mccormick1[15]: - u[15] + r[15] <= 0
 mccormick1[16]: - u[16] + r[16] <= 0
 mccormick1[17]: - u[17] + r[17] <= 0
 mccormick1[18]: - u[18] + r[18] <= 0
 mccormick1[19]: - u[19] + r[19] <= 0
 mccormick1[20]: - u[20] + r[20] <= 0
 mccormick1[21]: - u[21] + r[21] <= 0
 mccormick1[22]: - u[22] + r[22] <= 0
 mccormick1[23]: - u[23] + r[23] <= 0
 mccormick1[24]: - u[24] + r[24] <= 0
 mccormick1[25]: - u[25] + r[25] <= 0
 mccormick1[26]: - u[26] + r[26] <= 0
 mccormick1[27]: - u[27] + r[27] <= 0
 mccormick1[28]: - u[28] + r[28] <= 0
 mccormick1[29]: - u[29] + r[29] <= 0
 mccormick1[30]: - u[30] + r[30] <= 0
 mccormick1[31]: - u[31] + r[31] <= 0
 mccormick1[32]: - u[32] + r[32] <= 0
 mccormick1[33]: - u[33] + r[33] <= 0
 mccormick1[34]: - u[34] + r[34] <= 0
 mccormick1[35]: - u[35] + r[35] <= 0
 mccormick1[36]: - u[36] + r[36] <= 0
 mccormick1[37]: - u[37] + r[37] <= 0
 mccormick1[38]: - u[38] + r[38] <= 0
 mccormick1[39]: - u[39] + r[39] <= 0
 mccormick1[40]: - u[40] + r[40] <= 0
 mccormick1[41]: - u[41] + r[41] <= 0
 mccormick1[42]: - u[42] + r[42] <= 0
 mccormick1[43]: - u[43] + r[43] <= 0
 mccormick1[44]: - u[44] + r[44] <= 0
 mccormick1[45]: - u[45] + r[45] <= 0
 mccormick1[46]: - u[46] + r[46] <= 0
 mccormick1[47]: - u[47] + r[47] <= 0
 mccormick1[48]: - u[48] + r[48] <= 0
 mccormick1[49]: - u[49] + r[49] <= 0
 mccormick1[50]: - u[50] + r[50] <= 0
 mccormick1[51]: - u[51] + r[51] <= 0
 mccormick1[52]: - u[52] + r[52] <= 0
 mccormick1[53]: - u[53] + r[53] <= 0
 mccormick1[54]: - u[54] + r[54] <= 0
 mccormick1[55]: - u[55] + r[55] <= 0
 mccormick1[56]: - u[56] + r[56] <= 0
 mccormick1[57]: - u[57] + r[57] <= 0
 mccormick1[58]: - u[58] + r[58] <= 0
 mccormick1[59]: - u[59] + r[59] <= 0
 mccormick1[60]: - u[60] + r[60] <= 0
 mccormick1[61]: - u[61] + r[61] <= 0
 mccormick1[62]: - u[62] + r[62] <= 0
 mccormick1[63]: - u[63] + r[63] <= 0
 mccormick1[64]: - u[64] + r[64] <= 0
 mccormick1[65]: - u[65] + r[65] <= 0
 mccormick1[66]: - u[66] + r[66] <= 0
 mccormick1[67]: - u[67] + r[67] <= 0
 mccormick1[68]: - u[68] + r[68] <= 0
 mccormick1[69]: - u[69] + r[69] <= 0
 mccormick1[70]: - u[70] + r[70] <= 0
 mccormick1[71]: - u[71] + r[71] <= 0
 mccormick1[72]: - u[72] + r[72] <= 0
 mccormick1[73]: - u[73] + r[73] <= 0
 mccormick1[74]: - u[74] + r[74] <= 0
 mccormick1[75]: - u[75] + r[75] <= 0
 mccormick1[76]: - u[76] + r[76] <= 0
 mccormick1[77]: - u[77] + r[77] <= 0
 mccormick1[78]: - u[78] + r[78] <= 0
 mccormick1[79]: - u[79] + r[79] <= 0
 mccormick1[80]: - u[80] + r[80] <= 0
 mccormick1[81]: - u[81] + r[81] <= 0
 mccormick1[82]: - u[82] + r[82] <= 0
 mccormick1[83]: - u[83] + r[83] <= 0
 mccormick1[84]: - u[84] + r[84] <= 0
 mccormick1[85]: - u[85] + r[85] <= 0
 mccormick1[86]: - u[86] + r[86] <= 0
 mccormick1[87]: - u[87] + r[87] <= 0
 mccormick1[88]: - u[88] + r[88] <= 0
 mccormick1[89]: - u[89] + r[89] <= 0
 mccormick2[0]: - x[0] + r[0] <= 0
 mccormick2[1]: - x[1] + r[1] <= 0
 mccormick2[2]: - x[2] + r[2] <= 0
 mccormick2[3]: - x[3] + r[3] <= 0
 mccormick2[4]: - x[4] + r[4] <= 0
 mccormick2[5]: - x[5] + r[5] <= 0
 mccormick2[6]: - x[6] + r[6] <= 0
 mccormick2[7]: - x[7] + r[7] <= 0
 mccormick2[8]: - x[8] + r[8] <= 0
 mccormick2[9]: - x[9] + r[9] <= 0
 mccormick2[10]: - x[10] + r[10] <= 0
 mccormick2[11]: - x[11] + r[11] <= 0
 mccormick2[12]: - x[12] + r[12] <= 0
 mccormick2[13]: - x[13] + r[13] <= 0
 mccormick2[14]: - x[14] + r[14] <= 0
 mccormick2[15]: - x[15] + r[15] <= 0
 mccormick2[16]: - x[16] + r[16] <= 0
 mccormick2[17]: - x[17] + r[17] <= 0
 mccormick2[18]: - x[18] + r[18] <= 0
 mccormick2[19]: - x[19] + r[19] <= 0
 mccormick2[20]: - x[20] + r[20] <= 0
 mccormick2[21]: - x[21] + r[21] <= 0
 mccormick2[22]: - x[22] + r[22] <= 0
 mccormick2[23]: - x[23] + r[23] <= 0
 mccormick2[24]: - x[24] + r[24] <= 0
 mccormick2[25]: - x[25] + r[25] <= 0
 mccormick2[26]: - x[26] + r[26] <= 0
 mccormick2[27]: - x[27] + r[27] <= 0
 mccormick2[28]: - x[28] + r[28] <= 0
 mccormick2[29]: - x[29] + r[29] <= 0
 mccormick2[30]: - x[30] + r[30] <= 0
 mccormick2[31]: - x[31] + r[31] <= 0
 mccormick2[32]: - x[32] + r[32] <= 0
 mccormick2[33]: - x[33] + r[33] <= 0
 mccormick2[34]: - x[34] + r[34] <= 0
 mccormick2[35]: - x[35] + r[35] <= 0
 mccormick2[36]: - x[36] + r[36] <= 0
 mccormick2[37]: - x[37] + r[37] <= 0
 mccormick2[38]: - x[38] + r[38] <= 0
 mccormick2[39]: - x[39] + r[39] <= 0
 mccormick2[40]: - x[40] + r[40] <= 0
 mccormick2[41]: - x[41] + r[41] <= 0
 mccormick2[42]: - x[42] + r[42] <= 0
 mccormick2[43]: - x[43] + r[43] <= 0
 mccormick2[44]: - x[44] + r[44] <= 0
 mccormick2[45]: - x[45] + r[45] <= 0
 mccormick2[46]: - x[46] + r[46] <= 0
 mccormick2[47]: - x[47] + r[47] <= 0
 mccormick2[48]: - x[48] + r[48] <= 0
 mccormick2[49]: - x[49] + r[49] <= 0
 mccormick2[50]: - x[50] + r[50] <= 0
 mccormick2[51]: - x[51] + r[51] <= 0
 mccormick2[52]: - x[52] + r[52] <= 0
 mccormick2[53]: - x[53] + r[53] <= 0
 mccormick2[54]: - x[54] + r[54] <= 0
 mccormick2[55]: - x[55] + r[55] <= 0
 mccormick2[56]: - x[56] + r[56] <= 0
 mccormick2[57]: - x[57] + r[57] <= 0
 mccormick2[58]: - x[58] + r[58] <= 0
 mccormick2[59]: - x[59] + r[59] <= 0
 mccormick2[60]: - x[60] + r[60] <= 0
 mccormick2[61]: - x[61] + r[61] <= 0
 mccormick2[62]: - x[62] + r[62] <= 0
 mccormick2[63]: - x[63] + r[63] <= 0
 mccormick2[64]: - x[64] + r[64] <= 0
 mccormick2[65]: - x[65] + r[65] <= 0
 mccormick2[66]: - x[66] + r[66] <= 0
 mccormick2[67]: - x[67] + r[67] <= 0
 mccormick2[68]: - x[68] + r[68] <= 0
 mccormick2[69]: - x[69] + r[69] <= 0
 mccormick2[70]: - x[70] + r[70] <= 0
 mccormick2[71]: - x[71] + r[71] <= 0
 mccormick2[72]: - x[72] + r[72] <= 0
 mccormick2[73]: - x[73] + r[73] <= 0
 mccormick2[74]: - x[74] + r[74] <= 0
 mccormick2[75]: - x[75] + r[75] <= 0
 mccormick2[76]: - x[76] + r[76] <= 0
 mccormick2[77]: - x[77] + r[77] <= 0
 mccormick2[78]: - x[78] + r[78] <= 0
 mccormick2[79]: - x[79] + r[79] <= 0
 mccormick2[80]: - x[80] + r[80] <= 0
 mccormick2[81]: - x[81] + r[81] <= 0
 mccormick2[82]: - x[82] + r[82] <= 0
 mccormick2[83]: - x[83] + r[83] <= 0
 mccormick2[84]: - x[84] + r[84] <= 0
 mccormick2[85]: - x[85] + r[85] <= 0
 mccormick2[86]: - x[86] + r[86] <= 0
 mccormick2[87]: - x[87] + r[87] <= 0
 mccormick2[88]: - x[88] + r[88] <= 0
 mccormick2[89]: - x[89] + r[89] <= 0
 mccormick3[0]: x[0] + u[0] - r[0] <= 1
 mccormick3[1]: x[1] + u[1] - r[1] <= 1
 mccormick3[2]: x[2] + u[2] - r[2] <= 1
 mccormick3[3]: x[3] + u[3] - r[3] <= 1
 mccormick3[4]: x[4] + u[4] - r[4] <= 1
 mccormick3[5]: x[5] + u[5] - r[5] <= 1
 mccormick3[6]: x[6] + u[6] - r[6] <= 1
 mccormick3[7]: x[7] + u[7] - r[7] <= 1
 mccormick3[8]: x[8] + u[8] - r[8] <= 1
 mccormick3[9]: x[9] + u[9] - r[9] <= 1
 mccormick3[10]: x[10] + u[10] - r[10] <= 1
 mccormick3[11]: x[11] + u[11] - r[11] <= 1
 mccormick3[12]: x[12] + u[12] - r[12] <= 1
 mccormick3[13]: x[13] + u[13] - r[13] <= 1
 mccormick3[14]: x[14] + u[14] - r[14] <= 1
 mccormick3[15]: x[15] + u[15] - r[15] <= 1
 mccormick3[16]: x[16] + u[16] - r[16] <= 1
 mccormick3[17]: x[17] + u[17] - r[17] <= 1
 mccormick3[18]: x[18] + u[18] - r[18] <= 1
 mccormick3[19]: x[19] + u[19] - r[19] <= 1
 mccormick3[20]: x[20] + u[20] - r[20] <= 1
 mccormick3[21]: x[21] + u[21] - r[21] <= 1
 mccormick3[22]: x[22] + u[22] - r[22] <= 1
 mccormick3[23]: x[23] + u[23] - r[23] <= 1
 mccormick3[24]: x[24] + u[24] - r[24] <= 1
 mccormick3[25]: x[25] + u[25] - r[25] <= 1
 mccormick3[26]: x[26] + u[26] - r[26] <= 1
 mccormick3[27]: x[27] + u[27] - r[27] <= 1
 mccormick3[28]: x[28] + u[28] - r[28] <= 1
 mccormick3[29]: x[29] + u[29] - r[29] <= 1
 mccormick3[30]: x[30] + u[30] - r[30] <= 1
 mccormick3[31]: x[31] + u[31] - r[31] <= 1
 mccormick3[32]: x[32] + u[32] - r[32] <= 1
 mccormick3[33]: x[33] + u[33] - r[33] <= 1
 mccormick3[34]: x[34] + u[34] - r[34] <= 1
 mccormick3[35]: x[35] + u[35] - r[35] <= 1
 mccormick3[36]: x[36] + u[36] - r[36] <= 1
 mccormick3[37]: x[37] + u[37] - r[37] <= 1
 mccormick3[38]: x[38] + u[38] - r[38] <= 1
 mccormick3[39]: x[39] + u[39] - r[39] <= 1
 mccormick3[40]: x[40] + u[40] - r[40] <= 1
 mccormick3[41]: x[41] + u[41] - r[41] <= 1
 mccormick3[42]: x[42] + u[42] - r[42] <= 1
 mccormick3[43]: x[43] + u[43] - r[43] <= 1
 mccormick3[44]: x[44] + u[44] - r[44] <= 1
 mccormick3[45]: x[45] + u[45] - r[45] <= 1
 mccormick3[46]: x[46] + u[46] - r[46] <= 1
 mccormick3[47]: x[47] + u[47] - r[47] <= 1
 mccormick3[48]: x[48] + u[48] - r[48] <= 1
 mccormick3[49]: x[49] + u[49] - r[49] <= 1
 mccormick3[50]: x[50] + u[50] - r[50] <= 1
 mccormick3[51]: x[51] + u[51] - r[51] <= 1
 mccormick3[52]: x[52] + u[52] - r[52] <= 1
 mccormick3[53]: x[53] + u[53] - r[53] <= 1
 mccormick3[54]: x[54] + u[54] - r[54] <= 1
 mccormick3[55]: x[55] + u[55] - r[55] <= 1
 mccormick3[56]: x[56] + u[56] - r[56] <= 1
 mccormick3[57]: x[57] + u[57] - r[57] <= 1
 mccormick3[58]: x[58] + u[58] - r[58] <= 1
 mccormick3[59]: x[59] + u[59] - r[59] <= 1
 mccormick3[60]: x[60] + u[60] - r[60] <= 1
 mccormick3[61]: x[61] + u[61] - r[61] <= 1
 mccormick3[62]: x[62] + u[62] - r[62] <= 1
 mccormick3[63]: x[63] + u[63] - r[63] <= 1
 mccormick3[64]: x[64] + u[64] - r[64] <= 1
 mccormick3[65]: x[65] + u[65] - r[65] <= 1
 mccormick3[66]: x[66] + u[66] - r[66] <= 1
 mccormick3[67]: x[67] + u[67] - r[67] <= 1
 mccormick3[68]: x[68] + u[68] - r[68] <= 1
 mccormick3[69]: x[69] + u[69] - r[69] <= 1
 mccormick3[70]: x[70] + u[70] - r[70] <= 1
 mccormick3[71]: x[71] + u[71] - r[71] <= 1
 mccormick3[72]: x[72] + u[72] - r[72] <= 1
 mccormick3[73]: x[73] + u[73] - r[73] <= 1
 mccormick3[74]: x[74] + u[74] - r[74] <= 1
 mccormick3[75]: x[75] + u[75] - r[75] <= 1
 mccormick3[76]: x[76] + u[76] - r[76] <= 1
 mccormick3[77]: x[77] + u[77] - r[77] <= 1
 mccormick3[78]: x[78] + u[78] - r[78] <= 1
 mccormick3[79]: x[79] + u[79] - r[79] <= 1
 mccormick3[80]: x[80] + u[80] - r[80] <= 1
 mccormick3[81]: x[81] + u[81] - r[81] <= 1
 mccormick3[82]: x[82] + u[82] - r[82] <= 1
 mccormick3[83]: x[83] + u[83] - r[83] <= 1
 mccormick3[84]: x[84] + u[84] - r[84] <= 1
 mccormick3[85]: x[85] + u[85] - r[85] <= 1
 mccormick3[86]: x[86] + u[86] - r[86] <= 1
 mccormick3[87]: x[87] + u[87] - r[87] <= 1
 mccormick3[88]: x[88] + u[88] - r[88] <= 1
 mccormick3[89]: x[89] + u[89] - r[89] <= 1
Bounds
Binaries
 x[0] x[1] x[2] x[3] x[4] x[5] x[6] x[7] x[8] x[9] x[10] x[11] x[12] x[13]
 x[14] x[15] x[16] x[17] x[18] x[19] x[20] x[21] x[22] x[23] x[24] x[25]
 x[26] x[27] x[28] x[29] x[30] x[31] x[32] x[33] x[34] x[35] x[36] x[37]
 x[38] x[39] x[40] x[41] x[42] x[43] x[44] x[45] x[46] x[47] x[48] x[49]
 x[50] x[51] x[52] x[53] x[54] x[55] x[56] x[57] x[58] x[59] x[60] x[61]
 x[62] x[63] x[64] x[65] x[66] x[67] x[68] x[69] x[70] x[71] x[72] x[73]
 x[74] x[75] x[76] x[77] x[78] x[79] x[80] x[81] x[82] x[83] x[84] x[85]
 x[86] x[87] x[88] x[89] u[0] u[1] u[2] u[3] u[4] u[5] u[6] u[7] u[8] u[9]
 u[10] u[11] u[12] u[13] u[14] u[15] u[16] u[17] u[18] u[19] u[20] u[21]
 u[22] u[23] u[24] u[25] u[26] u[27] u[28] u[29] u[30] u[31] u[32] u[33]
 u[34] u[35] u[36] u[37] u[38] u[39] u[40] u[41] u[42] u[43] u[44] u[45]
 u[46] u[47] u[48] u[49] u[50] u[51] u[52] u[53] u[54] u[55] u[56] u[57]
 u[58] u[59] u[60] u[61] u[62] u[63] u[64] u[65] u[66] u[67] u[68] u[69]
 u[70] u[71] u[72] u[73] u[74] u[75] u[76] u[77] u[78] u[79] u[80] u[81]
 u[82] u[83] u[84] u[85] u[86] u[87] u[88] u[89] r[0] r[1] r[2] r[3] r[4]
 r[5] r[6] r[7] r[8] r[9] r[10] r[11] r[12] r[13] r[14] r[15] r[16] r[17]
 r[18] r[19] r[20] r[21] r[22] r[23] r[24] r[25] r[26] r[27] r[28] r[29]
 r[30] r[31] r[32] r[33] r[34] r[35] r[36] r[37] r[38] r[39] r[40] r[41]
 r[42] r[43] r[44] r[45] r[46] r[47] r[48] r[49] r[50] r[51] r[52] r[53]
 r[54] r[55] r[56] r[57] r[58] r[59] r[60] r[61] r[62] r[63] r[64] r[65]
 r[66] r[67] r[68] r[69] r[70] r[71] r[72] r[73] r[74] r[75] r[76] r[77]
 r[78] r[79] r[80] r[81] r[82] r[83] r[84] r[85] r[86] r[87] r[88] r[89]
End
