instances/knapsack/discrete/knapsack_90_20.kp
70708
90
439

61 6.1 47
33 3.3 60
15 1.5 61
16 1.6 25
45 4.5 51
99 9.9 70
94 9.4 31
89 8.9 25
2 0.2 8
71 7.1 64
9 0.9 60
72 7.2 84
5 0.5 44
21 2.1 7
94 9.4 56
14 1.4 9
2 0.2 59
61 6.1 75
30 3.0 20
87 8.7 79
94 9.4 43
89 8.9 64
93 9.3 13
24 2.4 93
62 6.2 70
1 0.1 84
55 5.5 73
9 0.9 45
11 1.1 27
32 3.2 42
83 8.3 94
93 9.3 61
29 2.9 73
94 9.4 56
49 4.9 53
58 5.8 10
1 0.1 74
22 2.2 96
85 8.5 12
28 2.8 17
96 9.6 45
87 8.7 51
83 8.3 23
59 5.9 88
40 4.0 100
92 9.2 8
27 2.7 94
55 5.5 42
64 6.4 74
9 0.9 79
72 7.2 68
21 2.1 40
34 3.4 20
17 1.7 34
46 4.6 5
5 0.5 87
62 6.2 48
44 4.4 61
97 9.7 37
15 1.5 60
78 7.8 85
60 6.0 31
37 3.7 55
24 2.4 47
65 6.5 36
89 8.9 98
82 8.2 86
16 1.6 71
9 0.9 34
7 0.7 71
35 3.5 26
43 4.3 76
67 6.7 50
56 5.6 27
97 9.7 40
50 5.0 7
76 7.6 47
92 9.2 42
22 2.2 37
88 8.8 97
95 9.5 88
27 2.7 99
80 8.0 67
11 1.1 79
27 2.7 62
7 0.7 94
69 6.9 7
85 8.5 40
75 7.5 9
84 8.4 64

46977
425

[0.5150229647936578 4.2891719247377775 2.699488431883872 1.5525491288875446 2.691330806271699 3.925626984277941 1.7553376561577367 3.4997031075304443 0.5672500157603667 2.253644656213321 3.5993206788947307 4.330406038385392 4.717707948756692 0.1275097522503685 3.45743687656652 2.213226890464636 1.8647559673757426 3.5793207855108884 0.0018634916133873174 1.2832029008324761 1.1711660410261513 0.27186110314772394 0.017620262961792633 1.3873823517046677 1.1832791447084179 4.508815522518818 1.0455326877384588 4.21053762842623 0.8956355581720862 4.48574878046856 4.551846767106431 0.12912933589795675 1.489243903744524 3.892857332241771 1.295682251549387 4.336470899464783 1.7836402284127364 1.9406661412713015 0.2470887570372274 4.233344783844349 2.108151084206706 0.29232716989010366 0.5064836790115513 2.498745871074405 1.3661838578749614 3.8311206054334943 3.1989428796943793 1.3449884688146025 3.1836387365472762 2.907538921236202 0.7107366583256957 1.798707242564302 1.248052919757847 1.5235355197530038 1.2215831764628797 0.4758703653981681 4.538973386660508 0.6358544624421701 3.0417487020981224 2.7079024531716636 3.691543244224831 3.7513837200079188 0.17774955432005932 2.5118030019447177 3.845714439758291 0.8388683831966096 2.4848081393421375 0.37153952264810447 4.632971441519733 1.540709512026616 1.420630346917479 0.9729025928190127 3.5146283655215798 4.332948919128998 4.134894095916915 1.6272283168779194 2.9071677523474215 3.446393211293895 2.9070006120370904 2.8008155343763605 1.1980898846198857 1.6461453520873048 3.28037938907872 1.283927965144533 4.506396402975925 1.0889512716203478 0.8025462989501384 3.076919596564482 0.8723657650208494 3.579582890112894]

[37 10 36 21 2 79 11 49 83 60 85 69 86 26 66 54 91 94 39 76 23 17 46 80 14 54 60 17 87 57 91 49 49 91 86 35 34 54 30 52 45 71 80 23 21 56 71 79 37 14 8 22 39 98 34 41 11 48 46 56 2 28 37 60 77 6 86 80 54 11 19 87 76 49 49 34 32 25 58 28 95 83 76 35 55 63 13 38 44 69]
